 $CONTRL SCFTYP=RHF RUNTYP=OPTIMIZE
   DFTTYP=B3LYP MAXIT=30 MULT=1 $END
 $SYSTEM TIMLIM=525600 MEMORY=6553600 $END
 $DFT DC=.T. IDCVER=4                 $END
 $BASIS GBASIS=N311 NGAUSS=6 NDFUNC=1 $END
 $SCF DIRSCF=.TRUE. FDIFF=.FALSE. $END
 $STATPT OPTTOL=0.0001 NSTEP=500 $END
 $DATA 
 cur-enol
 C1 
 C     6.0      2.700   0.617  -0.227
 H     1.0      1.969   1.095  -0.877
 H     1.0      2.741   1.147   0.731
 H     1.0      3.686   0.642  -0.703
 O     8.0      2.253  -0.719  -0.050
 C     6.0      2.998  -1.549   0.749
 C     6.0      4.172  -1.219   1.396
 H     1.0      4.586  -0.226   1.291
 C     6.0      4.843  -2.174   2.192
 C     6.0      6.075  -1.878   2.902
 H     1.0      6.514  -2.707   3.451
 C     6.0      6.725  -0.698   2.964
 H     1.0      6.352   0.184   2.455
 C     6.0      7.947  -0.512   3.719
 O     8.0      8.424  -1.585   4.344
 H     1.0      9.252  -1.289   4.820
 C     6.0      8.580   0.711   3.796
 H     1.0      8.152   1.555   3.271
 C     6.0      9.783   0.883   4.571
 O     8.0     10.304  -0.072   5.195
 C     6.0     10.378   2.228   4.612
 H     1.0      9.882   3.002   4.034
 C     6.0     11.484   2.480   5.337
 H     1.0     11.897   1.632   5.879
 C     6.0     12.193   3.740   5.484
 C     6.0     13.332   3.790   6.297
 H     1.0     13.660   2.888   6.803
 C     6.0     14.051   4.970   6.467
 H     1.0     14.933   5.010   7.095
 C     6.0     13.639   6.128   5.825
 O     8.0     14.329   7.284   5.979
 H     1.0     13.886   7.965   5.454
 C     6.0     12.490   6.097   5.004
 O     8.0     12.196   7.311   4.437
 C     6.0     11.070   7.392   3.574
 H     1.0     11.015   8.428   3.248
 H     1.0     10.150   7.124   4.102
 H     1.0     11.197   6.739   2.704
 C     6.0     11.781   4.925   4.834
 H     1.0     10.905   4.909   4.200
 C     6.0      4.287  -3.456   2.300
 H     1.0      4.790  -4.201   2.907
 C     6.0      3.103  -3.790   1.650
 H     1.0      2.670  -4.780   1.735
 C     6.0      2.450  -2.845   0.873
 O     8.0      1.296  -3.157   0.234
 H     1.0      1.003  -2.370  -0.247
 $END


