 $CONTRL SCFTYP=RHF RUNTYP=OPTIMIZE
   DFTTYP=B3LYP MAXIT=30 MULT=1 $END
 $SYSTEM TIMLIM=525600 MEMORY=6553600 $END
 $DFT DC=.T. IDCVER=4                 $END
 $BASIS GBASIS=N311 NGAUSS=6 NDFUNC=1 $END
 $SCF DIRSCF=.TRUE. FDIFF=.FALSE. $END
 $STATPT OPTTOL=0.0001 NSTEP=500 $END
 $DATA 
 cur-keto 
C1 
 C     6.0      2.274  -0.040   2.839
 H     1.0      1.224   0.094   3.091
 H     1.0      2.894   0.560   3.512
 H     1.0      2.446   0.274   1.805
 O     8.0      2.542  -1.428   3.001
 C     6.0      3.809  -1.876   2.732
 C     6.0      4.873  -1.106   2.312
 H     1.0      4.752  -0.040   2.174
 C     6.0      6.132  -1.700   2.072
 C     6.0      7.276  -0.930   1.618
 H     1.0      8.217  -1.470   1.538
 C     6.0      7.308   0.372   1.275
 H     1.0      6.423   1.000   1.306
 C     6.0      8.556   1.014   0.832
 C     6.0      8.412   2.476   0.395
 H     1.0      7.589   2.582  -0.315
 H     1.0      9.352   2.779  -0.069
 C     6.0      8.090   3.341   1.614
 O     8.0      6.956   3.745   1.814
 C     6.0      9.220   3.589   2.525
 H     1.0     10.164   3.117   2.273
 C     6.0      9.069   4.349   3.627
 H     1.0      8.075   4.764   3.787
 C     6.0     10.066   4.676   4.629
 C     6.0      9.700   5.466   5.726
 H     1.0      8.678   5.825   5.803
 C     6.0     10.616   5.795   6.720
 H     1.0     10.337   6.404   7.571
 C     6.0     11.923   5.338   6.631
 O     8.0     12.826   5.649   7.589
 H     1.0     13.670   5.241   7.346
 C     6.0     12.311   4.541   5.529
 O     8.0     13.626   4.159   5.573
 C     6.0     14.121   3.344   4.517
 H     1.0     15.162   3.140   4.759
 H     1.0     14.063   3.869   3.558
 H     1.0     13.566   2.403   4.455
 C     6.0     11.400   4.217   4.545
 H     1.0     11.703   3.607   3.704
 C     6.0      6.271  -3.078   2.279
 H     1.0      7.234  -3.546   2.104
 C     6.0      5.198  -3.858   2.699
 H     1.0      5.299  -4.925   2.857
 C     6.0      3.963  -3.267   2.927
 O     8.0      2.910  -4.012   3.338
 H     1.0      2.151  -3.419   3.440
 O     8.0      9.642   0.461   0.826
 $END


