 ! Keywords below are only useful for providing a starting input...
 ! See the GAMESS-US documentation...
 $CONTRL SCFTYP=RHF RUNTYP=OPTIMIZE
   DFTTYP=B3LYP MAXIT=30 MULT=1 $END
 $SYSTEM TIMLIM=525600 MEMORY=6553600 $END
 $BASIS GBASIS=N311 NGAUSS=6 NDFUNC=1 $END
 $SCF DIRSCF=.TRUE. FDIFF=.FALSE. $END
 $STATPT OPTTOL=0.0001 NSTEP=500 $END
 $DATA
 GAMESS-US optimization output to be used by R.E.D.
 C1 
 C     6.0      0.721   1.154  -0.275
 H     1.0      1.261   2.035   0.090
 H     1.0      0.693   1.222  -1.369
 C     6.0     -0.706   1.155   0.273
 H     1.0     -1.248   2.027  -0.108
 H     1.0     -0.670   1.246   1.365
 C     6.0     -1.447  -0.126  -0.104
 H     1.0     -1.579  -0.183  -1.191
 H     1.0     -2.447  -0.108   0.341
 N     7.0     -0.690  -1.310   0.306
 C     6.0      0.669  -1.367  -0.242
 H     1.0      0.574  -1.437  -1.333
 H     1.0      1.225  -2.245   0.080
 C     6.0      1.460  -0.117   0.137
 H     1.0      2.448  -0.141  -0.337
 H     1.0      1.621  -0.104   1.223
 C     6.0     -1.341  -2.272   1.069
 O     8.0     -2.515  -2.152   1.421
 C     6.0     -0.579  -3.483   1.482
 H     1.0      0.451  -3.596   1.191
 C     6.0     -1.157  -4.438   2.231
 H     1.0     -2.195  -4.337   2.545
 C     6.0     -0.428  -5.614   2.659
 H     1.0      0.601  -5.689   2.316
 C     6.0     -0.947  -6.581   3.432
 H     1.0     -1.984  -6.531   3.759
 C     6.0     -0.182  -7.759   3.882
 C     6.0      1.201  -7.696   4.119
 H     1.0      1.769  -6.783   3.983
 C     6.0      1.848  -8.836   4.547
 C     6.0      1.176 -10.013   4.765
 C     6.0     -0.183 -10.113   4.569
 H     1.0     -0.706 -11.046   4.751
 C     6.0     -0.865  -8.971   4.127
 H     1.0     -1.940  -9.036   3.965
 O     8.0      2.000 -11.010   5.186
 C     6.0      3.271 -10.325   5.198
 H     1.0      3.954 -10.840   4.513
 H     1.0      3.686 -10.373   6.211
 O     8.0      3.180  -8.941   4.803
 $END


